; benchmark generated from python API
(set-info :status unknown)
(declare-fun x_month () Int)
(declare-fun x_day () Int)
(declare-fun x_year () Int)
(declare-fun y_month () Int)
(declare-fun y_day () Int)
(declare-fun y_year () Int)
(assert
 (>= x_month 1))
(assert
 (<= x_month 12))
(assert
 (>= x_day 1))
(assert
 (<= x_day 31))
(assert
 (let (($x766 (<= x_day 28)))
 (let (($x818 (<= x_day 29)))
 (let (($x302 (= (mod x_year 400) 0)))
 (let (($x823 (= (mod x_year 4) 0)))
 (let (($x769 (ite (or (and $x823 (and (distinct (mod x_year 100) 0) true)) $x302) $x818 $x766)))
 (let (($x597 (= x_month 2)))
 (ite $x597 $x769 true))))))))
(assert
 (let (($x885 (<= x_day 30)))
 (let (($x558 (= x_month 6)))
 (let (($x453 (or (= x_month 4) $x558 (= x_month 9) (= x_month 11))))
 (ite $x453 $x885 true)))))
(assert
 (>= y_month 1))
(assert
 (<= y_month 12))
(assert
 (>= y_day 1))
(assert
 (<= y_day 31))
(assert
 (let (($x792 (<= y_day 28)))
 (let (($x550 (<= y_day 29)))
 (let (($x561 (= (mod y_year 400) 0)))
 (let (($x560 (= (mod y_year 4) 0)))
 (let (($x234 (ite (or (and $x560 (and (distinct (mod y_year 100) 0) true)) $x561) $x550 $x792)))
 (let (($x814 (= y_month 2)))
 (ite $x814 $x234 true))))))))
(assert
 (let (($x270 (<= y_day 30)))
 (let (($x380 (= y_month 6)))
 (let (($x386 (or (= y_month 4) $x380 (= y_month 9) (= y_month 11))))
 (ite $x386 $x270 true)))))
(assert
 (let (($x366 (= x_year 2023)))
 (let (($x875 (and $x366 (or (> x_month 6) (and (= x_month 6) (>= x_day 1))))))
 (or (> x_year 2023) $x875))))
(assert
 (let ((?x817 (+ (mod (- (+ x_month (+ (* 0 12) 1)) 1) 12) 1)))
 (let ((?x435 (ite (or (= ?x817 4) (= ?x817 6) (= ?x817 9) (= ?x817 11)) 30 31)))
 (let ((?x840 (+ 0 (div (- (+ x_month (+ (* 0 12) 1)) 1) 12))))
 (let ((?x692 (+ x_year ?x840)))
 (let (($x670 (or (and (= (mod ?x692 4) 0) (and (distinct (mod ?x692 100) 0) true)) (= (mod ?x692 400) 0))))
 (let ((?x500 (ite (= ?x817 2) (ite $x670 29 28) ?x435)))
 (let ((?x862 (ite (< x_day 1) 1 (ite (> x_day ?x500) ?x500 x_day))))
 (let ((?x3136 (ite (< ?x862 1) 1 (ite (> ?x862 ?x500) ?x500 ?x862))))
 (let ((?x621 (ite (= 2 ?x817) (ite $x670 31 31) (ite (= 1 ?x817) (ite $x670 0 0) 0))))
 (let ((?x644 (ite (= 4 ?x817) (ite $x670 91 90) (ite (= 3 ?x817) (ite $x670 60 59) ?x621))))
 (let ((?x911 (ite (= 6 ?x817) (ite $x670 152 151) (ite (= 5 ?x817) (ite $x670 121 120) ?x644))))
 (let ((?x668 (ite (= 8 ?x817) (ite $x670 213 212) (ite (= 7 ?x817) (ite $x670 182 181) ?x911))))
 (let ((?x428 (ite (= 10 ?x817) (ite $x670 274 273) (ite (= 9 ?x817) (ite $x670 244 243) ?x668))))
 (let ((?x582 (ite (= 12 ?x817) (ite $x670 335 334) (ite (= 11 ?x817) (ite $x670 305 304) ?x428))))
 (let ((?x905 (- (+ (* 365 (- ?x692 1)) (div (- ?x692 1) 4)) (div (- ?x692 1) 100))))
 (let ((?x938 (- (+ (+ (+ ?x905 (div (- ?x692 1) 400)) ?x582) (- ?x3136 1)) 730179)))
 (let ((?x964 (+ (+ ?x938 0) 730179)))
 (let ((?x751 (mod ?x964 146097)))
 (let ((?x1318 (div ?x751 36524)))
 (let ((?x639 (ite (<= 4 ?x1318) 3 ?x1318)))
 (let ((?x613 (- ?x751 (* ?x639 36524))))
 (let ((?x1431 (mod ?x613 1461)))
 (let ((?x2764 (div ?x1431 365)))
 (let ((?x648 (ite (<= 4 ?x2764) 3 ?x2764)))
 (let ((?x2351 (+ (+ (* (div ?x964 146097) 400) (* ?x639 100)) (* (div ?x613 1461) 4))))
 (let ((?x622 (+ (+ ?x2351 ?x648) 1)))
 (let (($x240 (or (and (= (mod ?x622 4) 0) (and (distinct (mod ?x622 100) 0) true)) (= (mod ?x622 400) 0))))
 (let ((?x715 (- ?x1431 (* ?x648 365))))
 (let ((?x598 (ite $x240 31 31)))
 (let (($x600 (>= ?x715 ?x598)))
 (let ((?x596 (ite $x600 (+ (- ?x715 ?x598) 1) (+ (- ?x715 (ite $x240 0 0)) 1))))
 (let ((?x1189 (ite $x240 60 59)))
 (let (($x477 (>= ?x715 ?x1189)))
 (let ((?x515 (ite $x240 91 90)))
 (let (($x414 (>= ?x715 ?x515)))
 (let ((?x933 (ite $x414 (+ (- ?x715 ?x515) 1) (ite $x477 (+ (- ?x715 ?x1189) 1) ?x596))))
 (let ((?x506 (ite $x240 121 120)))
 (let (($x397 (>= ?x715 ?x506)))
 (let ((?x449 (ite $x240 152 151)))
 (let (($x883 (>= ?x715 ?x449)))
 (let ((?x1900 (ite $x883 (+ (- ?x715 ?x449) 1) (ite $x397 (+ (- ?x715 ?x506) 1) ?x933))))
 (let ((?x425 (ite $x240 182 181)))
 (let (($x340 (>= ?x715 ?x425)))
 (let ((?x323 (ite $x240 213 212)))
 (let (($x654 (>= ?x715 ?x323)))
 (let ((?x2213 (ite $x654 (+ (- ?x715 ?x323) 1) (ite $x340 (+ (- ?x715 ?x425) 1) ?x1900))))
 (let ((?x214 (ite $x240 244 243)))
 (let (($x387 (>= ?x715 ?x214)))
 (let ((?x628 (ite $x240 274 273)))
 (let (($x504 (>= ?x715 ?x628)))
 (let ((?x1283 (ite $x504 (+ (- ?x715 ?x628) 1) (ite $x387 (+ (- ?x715 ?x214) 1) ?x2213))))
 (let ((?x512 (ite $x240 305 304)))
 (let (($x246 (>= ?x715 ?x512)))
 (let ((?x348 (ite $x240 335 334)))
 (let (($x319 (>= ?x715 ?x348)))
 (let ((?x518 (ite $x319 (+ (- ?x715 ?x348) 1) (ite $x246 (+ (- ?x715 ?x512) 1) ?x1283))))
 (let (($x906 (= 0 0)))
 (let ((?x611 (ite $x906 ?x3136 ?x518)))
 (let ((?x680 (ite $x397 5 (ite $x414 4 (ite $x477 3 (ite $x600 2 1))))))
 (let ((?x489 (ite $x387 9 (ite $x654 8 (ite $x340 7 (ite $x883 6 ?x680))))))
 (let ((?x2983 (+ (ite $x906 ?x817 (ite $x319 12 (ite $x246 11 (ite $x504 10 ?x489)))) (+ (* 0 12) 0))))
 (let ((?x3298 (- ?x2983 1)))
 (let ((?x224 (+ (mod ?x3298 12) 1)))
 (let ((?x450 (ite (or (= ?x224 4) (= ?x224 6) (= ?x224 9) (= ?x224 11)) 30 31)))
 (let (($x601 (= (mod (+ (ite $x906 ?x692 ?x622) (+ 0 (div ?x3298 12))) 400) 0)))
 (let (($x236 (and (distinct (mod (+ (ite $x906 ?x692 ?x622) (+ 0 (div ?x3298 12))) 100) 0) true)))
 (let (($x275 (= (mod (+ (ite $x906 ?x692 ?x622) (+ 0 (div ?x3298 12))) 4) 0)))
 (let (($x708 (or (and $x275 $x236) $x601)))
 (let ((?x744 (ite (= ?x224 2) (ite $x708 29 28) ?x450)))
 (let ((?x650 (ite (< ?x611 1) 1 (ite (> ?x611 ?x744) ?x744 ?x611))))
 (let ((?x267 (ite (< ?x650 1) 1 (ite (> ?x650 ?x744) ?x744 ?x650))))
 (let ((?x884 (ite (= 2 ?x224) (ite $x708 31 31) (ite (= 1 ?x224) (ite $x708 0 0) 0))))
 (let ((?x529 (ite (= 4 ?x224) (ite $x708 91 90) (ite (= 3 ?x224) (ite $x708 60 59) ?x884))))
 (let ((?x951 (ite (= 6 ?x224) (ite $x708 152 151) (ite (= 5 ?x224) (ite $x708 121 120) ?x529))))
 (let ((?x732 (ite (= 8 ?x224) (ite $x708 213 212) (ite (= 7 ?x224) (ite $x708 182 181) ?x951))))
 (let ((?x930 (ite (= 10 ?x224) (ite $x708 274 273) (ite (= 9 ?x224) (ite $x708 244 243) ?x732))))
 (let ((?x735 (ite (= 12 ?x224) (ite $x708 335 334) (ite (= 11 ?x224) (ite $x708 305 304) ?x930))))
 (let ((?x1281 (+ (ite $x906 ?x692 ?x622) (+ 0 (div ?x3298 12)))))
 (let ((?x324 (- ?x1281 1)))
 (let ((?x689 (+ (- (+ (* 365 ?x324) (div ?x324 4)) (div ?x324 100)) (div ?x324 400))))
 (let ((?x266 (+ (+ (- (+ (+ ?x689 ?x735) (- ?x267 1)) 730179) 15) 730179)))
 (let ((?x362 (mod ?x266 146097)))
 (let ((?x536 (div ?x362 36524)))
 (let ((?x2268 (ite (<= 4 ?x536) 3 ?x536)))
 (let ((?x607 (- ?x362 (* ?x2268 36524))))
 (let ((?x856 (mod ?x607 1461)))
 (let ((?x333 (div ?x856 365)))
 (let ((?x620 (ite (<= 4 ?x333) 3 ?x333)))
 (let ((?x830 (+ (+ (* (div ?x266 146097) 400) (* ?x2268 100)) (* (div ?x607 1461) 4))))
 (let ((?x311 (+ (+ ?x830 ?x620) 1)))
 (let (($x858 (or (and (= (mod ?x311 4) 0) (and (distinct (mod ?x311 100) 0) true)) (= (mod ?x311 400) 0))))
 (let ((?x798 (- ?x856 (* ?x620 365))))
 (let ((?x553 (ite $x858 31 31)))
 (let (($x220 (>= ?x798 ?x553)))
 (let ((?x581 (ite $x220 (+ (- ?x798 ?x553) 1) (+ (- ?x798 (ite $x858 0 0)) 1))))
 (let ((?x456 (ite $x858 60 59)))
 (let (($x1807 (>= ?x798 ?x456)))
 (let ((?x781 (ite $x858 91 90)))
 (let (($x486 (>= ?x798 ?x781)))
 (let ((?x584 (ite $x486 (+ (- ?x798 ?x781) 1) (ite $x1807 (+ (- ?x798 ?x456) 1) ?x581))))
 (let ((?x385 (ite $x858 121 120)))
 (let (($x1118 (>= ?x798 ?x385)))
 (let ((?x634 (ite $x858 152 151)))
 (let (($x702 (>= ?x798 ?x634)))
 (let ((?x487 (ite $x702 (+ (- ?x798 ?x634) 1) (ite $x1118 (+ (- ?x798 ?x385) 1) ?x584))))
 (let ((?x352 (ite $x858 182 181)))
 (let (($x297 (>= ?x798 ?x352)))
 (let ((?x350 (ite $x858 213 212)))
 (let (($x790 (>= ?x798 ?x350)))
 (let ((?x726 (ite $x790 (+ (- ?x798 ?x350) 1) (ite $x297 (+ (- ?x798 ?x352) 1) ?x487))))
 (let ((?x618 (ite $x858 244 243)))
 (let (($x347 (>= ?x798 ?x618)))
 (let ((?x614 (ite $x858 274 273)))
 (let (($x837 (>= ?x798 ?x614)))
 (let ((?x672 (ite $x837 (+ (- ?x798 ?x614) 1) (ite $x347 (+ (- ?x798 ?x618) 1) ?x726))))
 (let ((?x1430 (ite $x858 305 304)))
 (let (($x416 (>= ?x798 ?x1430)))
 (let ((?x927 (ite $x858 335 334)))
 (let (($x339 (>= ?x798 ?x927)))
 (let ((?x559 (ite $x339 (+ (- ?x798 ?x927) 1) (ite $x416 (+ (- ?x798 ?x1430) 1) ?x672))))
 (let (($x513 (= 0 15)))
 (let ((?x1429 (ite $x1118 5 (ite $x486 4 (ite $x1807 3 (ite $x220 2 1))))))
 (let ((?x364 (ite $x347 9 (ite $x790 8 (ite $x297 7 (ite $x702 6 ?x1429))))))
 (let ((?x519 (ite $x339 12 (ite $x416 11 (ite $x837 10 ?x364)))))
 (and (= (ite $x513 ?x1281 ?x311) y_year) (= (ite $x513 ?x224 ?x519) y_month) (= (ite $x513 ?x267 ?x559) y_day)))))))))))))))))))))))))))))))))))))))))))))))))))))))))))))))))))))))))))))))))))))))))))))))))))))))))))))))))))))))))))))))
(assert
 (let (($x389 (= y_year 2023)))
(let (($x441 (and $x389 (or (> y_month 6) (and (= y_month 6) (>= y_day 1))))))
(or (> y_year 2023) $x441))))
(check-sat)
